284828.48,16.28,17.83
293867.5,15.78,17.29
294127.68,15.77,17.27
285812.35,16.23,17.77
284624.38,16.29,17.85
280352.66,16.54,18.12
288078.48,16.1,17.63
297738.49,15.58,17.06
282683.64,16.41,17.97
277502.78,16.71,18.31
292803.55,15.84,17.35
269213.49,17.23,18.87
279677.08,16.58,18.16
285138.2,16.26,17.82
276001.37,16.8,18.4
283064.17,16.38,17.95
281480.85,16.48,18.05
273682.38,16.95,18.56
281004.82,16.5,18.08
262032.32,17.7,19.39
